
























































































45 98 35 110 
9 39 83 109 
80 105 69 49 
79 8 18 96 43 
95 5 4 0 62 
64 51 23 108 
3 53 91 22 
104 76 57 90 
10 19 65 60 
34 11 85 84 
54 82 72 30 74 
56 86 81 75 
113 68 66 28 111 
13 63 102 50 
107 24 6 92 29 
94 14 112 12 
40 48 59 1 
100 36 70 106 
47 32 78 58 42 
77 31 99 33 15 
44 17 67 46 93 
89 7 16 38 61 
2 101 103 88 
73 52 114 41 37 
21 27 26 71 55 
87 25 97 20 
